experiments/mac_chuffed/detailed-output/inst-39-1310894813.dzn

A = 3;
T = 7;
X = 7;
Y = 7;
Z = 6;
building = array2d(0..6, 0..6,
                   [0, 0, 0, 0, 0, 0, 0, 0, 5, 1, 2, 0, 3, 0, 0, 0, 0, 3, 0, 0, 0, 0, 0, 0, 0, 0, 0, 0,
                    0, 0, 0, 0, 0, 0, 0, 0, 0, 0, 0, 4, 0, 0, 0, 0, 0, 0, 0, 0, 0]);
